nN = 4;
nR = 17;
nH = 1;

a = [[6, 7, 18, 15, 22, 18, 6, 23, 24, 16, 19, 5, 15, 13, 5, 18, 12], [16, 25, 6, 23, 23, 22, 6, 17, 13, 10, 9, 20, 5, 24, 8, 13, 6], [24, 18, 14, 6, 22, 13, 15, 24, 15, 21, 13, 24, 14, 20, 19, 16, 5], [9, 17, 18, 14, 5, 15, 19, 7, 17, 19, 7, 17, 17, 24, 10, 25, 16]];
c = [[[0, 0, 0, 0, 0, 0, 0, 0, 0, 0, 0, 0, 0, 0, 0, 0, 0], [47, 31, 39, 31, 40, 42, 31, 32, 33, 41, 43, 39, 38, 33, 41, 49, 45], [30, 50, 50, 50, 49, 43, 34, 50, 42, 33, 50, 33, 37, 50, 33, 49, 44], [30, 48, 37, 34, 36, 49, 37, 46, 37, 45, 44, 42, 40, 43, 45, 30, 44]], [[0, 0, 0, 0, 0, 0, 0, 0, 0, 0, 0, 0, 0, 0, 0, 0, 0], [0, 0, 0, 0, 0, 0, 0, 0, 0, 0, 0, 0, 0, 0, 0, 0, 0], [46, 43, 46, 41, 36, 40, 31, 47, 31, 34, 38, 40, 37, 37, 48, 46, 48], [49, 36, 38, 44, 33, 46, 38, 35, 39, 42, 41, 32, 47, 48, 48, 43, 30]], [[0, 0, 0, 0, 0, 0, 0, 0, 0, 0, 0, 0, 0, 0, 0, 0, 0], [0, 0, 0, 0, 0, 0, 0, 0, 0, 0, 0, 0, 0, 0, 0, 0, 0], [0, 0, 0, 0, 0, 0, 0, 0, 0, 0, 0, 0, 0, 0, 0, 0, 0], [43, 47, 32, 41, 48, 46, 32, 31, 39, 42, 37, 40, 35, 50, 39, 47, 32]], [[0, 0, 0, 0, 0, 0, 0, 0, 0, 0, 0, 0, 0, 0, 0, 0, 0], [0, 0, 0, 0, 0, 0, 0, 0, 0, 0, 0, 0, 0, 0, 0, 0, 0], [0, 0, 0, 0, 0, 0, 0, 0, 0, 0, 0, 0, 0, 0, 0, 0, 0], [0, 0, 0, 0, 0, 0, 0, 0, 0, 0, 0, 0, 0, 0, 0, 0, 0]]];
Q = [[49], [49], [43], [49]];

q = [[[15], [15], [21], [20], [12], [20], [5], [15], [24], [16], [6], [22], [6], [21], [5], [12], [9]], [[19], [17], [6], [9], [18], [23], [13], [16], [20], [9], [6], [6], [22], [21], [14], [7], [18]], [[9], [7], [12], [7], [8], [10], [10], [8], [16], [14], [21], [20], [5], [7], [25], [15], [20]], [[25], [20], [13], [23], [21], [14], [14], [18], [13], [5], [15], [11], [5], [10], [11], [13], [10]]];
p = [0.59, 0.55, 0.9, 0.47, 0.89, 0.9, 0.97, 0.96, 0.78, 0.6, 0.17, 0.03, 0.27, 0.12, 0.06, 0.48, 0.04];
